Minimize
  cst_0_phi_112_flop + start_0_forkC_36_flop + cst_11_phi_n11107_flop + forkC_3_cst_00_flop + forkC_3_cst_114_flop + forkC_3_phiC_0101_flop + load_4_LSQ_A153_flop + load_22_MC_b158_flop + store_0_LSQ_A154_flop + store_0_LSQ_A155_flop + forkC_0_LSQ_A152_flop + branch_0_ret_0150_flop + branchC_2_sink_1161_flop + ret_0_end_0164_flop + LSQ_A_load_414_flop + LSQ_A_end_0162_flop + MC_b_load_2279_flop + MC_b_end_0163_flop
Subject to
  timePath_cst_0_out1 <= 4
  timePath_phi_1_in3 <= 4
  8 cst_0_phi_112_flop - timePath_cst_0_out1 + timePath_phi_1_in3 >= 0
  timePath_start_0_out1 <= 4
  timePath_forkC_3_in1 <= 4
  8 start_0_forkC_36_flop - timePath_start_0_out1 + timePath_forkC_3_in1 >= 0
  timePath_cst_11_out1 <= 4
  timePath_phi_n11_in1 <= 4
  8 cst_11_phi_n11107_flop - timePath_cst_11_out1 + timePath_phi_n11_in1 >= 0
  timePath_forkC_3_out1 <= 4
  timePath_cst_0_in1 <= 4
  8 forkC_3_cst_00_flop + timePath_cst_0_in1 - timePath_forkC_3_out1 >= 0
  timePath_forkC_3_out3 <= 4
  timePath_cst_11_in1 <= 4
  8 forkC_3_cst_114_flop + timePath_cst_11_in1 - timePath_forkC_3_out3 >= 0
  timePath_forkC_3_out2 <= 4
  timePath_phiC_0_in3 <= 4
  8 forkC_3_phiC_0101_flop - timePath_forkC_3_out2 + timePath_phiC_0_in3 >= 0
  timePath_phi_1_out1 <= 4
  timePath_fork_0_in1 <= 4
  -timePath_phi_1_out1 + timePath_fork_0_in1 >= -8
  timePath_load_4_out1 <= 4
  timePath_fork_6_in1 <= 4
  -timePath_load_4_out1 + timePath_fork_6_in1 >= -0
  timePath_cst_1_out1 <= 4
  timePath_add_5_in2 <= 4
  -timePath_cst_1_out1 + timePath_add_5_in2 >= -0
  timePath_add_5_out1 <= 4
  timePath_mul_6_in1 <= 4
  -timePath_add_5_out1 + timePath_mul_6_in1 >= -0
  timePath_mul_6_out1 <= 4
  timePath_add_7_in1 <= 4
  -timePath_mul_6_out1 + timePath_add_7_in1 >= -0
  timePath_cst_2_out1 <= 4
  timePath_add_7_in2 <= 4
  -timePath_cst_2_out1 + timePath_add_7_in2 >= -0
  timePath_add_7_out1 <= 4
  timePath_mul_8_in1 <= 4
  -timePath_add_7_out1 + timePath_mul_8_in1 >= -0
  timePath_mul_8_out1 <= 4
  timePath_add_9_in1 <= 4
  -timePath_mul_8_out1 + timePath_add_9_in1 >= -0
  timePath_cst_3_out1 <= 4
  timePath_add_9_in2 <= 4
  -timePath_cst_3_out1 + timePath_add_9_in2 >= -0
  timePath_add_9_out1 <= 4
  timePath_mul_10_in1 <= 4
  -timePath_add_9_out1 + timePath_mul_10_in1 >= -0
  timePath_mul_10_out1 <= 4
  timePath_add_11_in1 <= 4
  -timePath_mul_10_out1 + timePath_add_11_in1 >= -0
  timePath_cst_4_out1 <= 4
  timePath_add_11_in2 <= 4
  -timePath_cst_4_out1 + timePath_add_11_in2 >= -0
  timePath_add_11_out1 <= 4
  timePath_mul_12_in1 <= 4
  -timePath_add_11_out1 + timePath_mul_12_in1 >= -0
  timePath_mul_12_out1 <= 4
  timePath_add_13_in1 <= 4
  -timePath_mul_12_out1 + timePath_add_13_in1 >= -0
  timePath_cst_5_out1 <= 4
  timePath_add_13_in2 <= 4
  -timePath_cst_5_out1 + timePath_add_13_in2 >= -0
  timePath_add_13_out1 <= 4
  timePath_mul_14_in1 <= 4
  -timePath_add_13_out1 + timePath_mul_14_in1 >= -0
  timePath_mul_14_out1 <= 4
  timePath_add_15_in1 <= 4
  -timePath_mul_14_out1 + timePath_add_15_in1 >= -0
  timePath_cst_6_out1 <= 4
  timePath_add_15_in2 <= 4
  -timePath_cst_6_out1 + timePath_add_15_in2 >= -0
  timePath_add_15_out1 <= 4
  timePath_mul_16_in1 <= 4
  -timePath_add_15_out1 + timePath_mul_16_in1 >= -0
  timePath_mul_16_out1 <= 4
  timePath_add_17_in1 <= 4
  -timePath_mul_16_out1 + timePath_add_17_in1 >= -0
  timePath_cst_7_out1 <= 4
  timePath_add_17_in2 <= 4
  -timePath_cst_7_out1 + timePath_add_17_in2 >= -0
  timePath_add_17_out1 <= 4
  timePath_mul_18_in1 <= 4
  -timePath_add_17_out1 + timePath_mul_18_in1 >= -0
  timePath_mul_18_out1 <= 4
  timePath_add_19_in1 <= 4
  -timePath_mul_18_out1 + timePath_add_19_in1 >= -0
  timePath_cst_8_out1 <= 4
  timePath_add_19_in2 <= 4
  -timePath_cst_8_out1 + timePath_add_19_in2 >= -0
  timePath_add_19_out1 <= 4
  timePath_store_0_in1 <= 4
  -timePath_add_19_out1 + timePath_store_0_in1 >= -0
  timePath_load_22_out1 <= 4
  timePath_store_0_in2 <= 4
  -timePath_load_22_out1 + timePath_store_0_in2 >= -0
  timePath_cst_9_out1 <= 4
  timePath_add_25_in2 <= 4
  -timePath_cst_9_out1 + timePath_add_25_in2 >= -0
  timePath_add_25_out1 <= 4
  timePath_fork_1_in1 <= 4
  -timePath_add_25_out1 + timePath_fork_1_in1 >= -0
  timePath_cst_10_out1 <= 4
  timePath_icmp_26_in2 <= 4
  -timePath_cst_10_out1 + timePath_icmp_26_in2 >= -0
  timePath_icmp_26_out1 <= 4
  timePath_fork_2_in1 <= 4
  -timePath_icmp_26_out1 + timePath_fork_2_in1 >= -0
  timePath_phiC_0_out1 <= 4
  timePath_forkC_4_in1 <= 4
  -timePath_phiC_0_out1 + timePath_forkC_4_in1 >= -8
  timePath_branch_0_out2 <= 4
  timePath_phi_1_in2 <= 4
  timePath_phi_1_in2 - timePath_branch_0_out2 >= -0
  timePath_branch_0_out1 <= 4
  timePath_ret_0_in1 <= 4
  8 branch_0_ret_0150_flop - timePath_branch_0_out1 + timePath_ret_0_in1 >= 0
  timePath_phi_n11_out1 <= 4
  timePath_fork_5_in1 <= 4
  -timePath_phi_n11_out1 + timePath_fork_5_in1 >= -0
  timePath_branchC_2_out2 <= 4
  timePath_phiC_0_in2 <= 4
  timePath_phiC_0_in2 - timePath_branchC_2_out2 >= -0
  timePath_branchC_2_out1 <= 4
  timePath_sink_1_in1 <= 4
  8 branchC_2_sink_1161_flop - timePath_branchC_2_out1 + timePath_sink_1_in1 >= 0
  timePath_fork_0_out2 <= 4
  timePath_load_4_in2 <= 4
  timePath_load_4_in2 - timePath_fork_0_out2 >= -0
  timePath_fork_0_out3 <= 4
  timePath_load_22_in2 <= 4
  timePath_load_22_in2 - timePath_fork_0_out3 >= -0
  timePath_fork_0_out1 <= 4
  timePath_add_25_in1 <= 4
  timePath_add_25_in1 - timePath_fork_0_out1 >= -0
  timePath_fork_1_out1 <= 4
  timePath_icmp_26_in1 <= 4
  timePath_icmp_26_in1 - timePath_fork_1_out1 >= -0
  timePath_fork_1_out2 <= 4
  timePath_branch_0_in1 <= 4
  timePath_branch_0_in1 - timePath_fork_1_out2 >= -0
  timePath_fork_2_out1 <= 4
  timePath_branch_0_in2 <= 4
  timePath_branch_0_in2 - timePath_fork_2_out1 >= -0
  timePath_fork_2_out2 <= 4
  timePath_phi_n11_in2 <= 4
  timePath_phi_n11_in2 - timePath_fork_2_out2 >= -0
  timePath_fork_2_out3 <= 4
  timePath_branchC_2_in2 <= 4
  timePath_branchC_2_in2 - timePath_fork_2_out3 >= -0
  timePath_forkC_4_out1 <= 4
  timePath_cst_1_in1 <= 4
  timePath_cst_1_in1 - timePath_forkC_4_out1 >= -0
  timePath_forkC_4_out3 <= 4
  timePath_cst_2_in1 <= 4
  timePath_cst_2_in1 - timePath_forkC_4_out3 >= -0
  timePath_forkC_4_out4 <= 4
  timePath_cst_3_in1 <= 4
  timePath_cst_3_in1 - timePath_forkC_4_out4 >= -0
  timePath_forkC_4_out5 <= 4
  timePath_cst_4_in1 <= 4
  timePath_cst_4_in1 - timePath_forkC_4_out5 >= -0
  timePath_forkC_4_out6 <= 4
  timePath_cst_5_in1 <= 4
  timePath_cst_5_in1 - timePath_forkC_4_out6 >= -0
  timePath_forkC_4_out7 <= 4
  timePath_cst_6_in1 <= 4
  timePath_cst_6_in1 - timePath_forkC_4_out7 >= -0
  timePath_forkC_4_out8 <= 4
  timePath_cst_7_in1 <= 4
  timePath_cst_7_in1 - timePath_forkC_4_out8 >= -0
  timePath_forkC_4_out9 <= 4
  timePath_cst_8_in1 <= 4
  timePath_cst_8_in1 - timePath_forkC_4_out9 >= -0
  timePath_forkC_4_out10 <= 4
  timePath_cst_9_in1 <= 4
  timePath_cst_9_in1 - timePath_forkC_4_out10 >= -0
  timePath_forkC_4_out11 <= 4
  timePath_cst_10_in1 <= 4
  timePath_cst_10_in1 - timePath_forkC_4_out11 >= -0
  timePath_forkC_4_out12 <= 4
  timePath_forkC_0_in1 <= 4
  timePath_forkC_0_in1 - timePath_forkC_4_out12 >= -0
  timePath_forkC_4_out2 <= 4
  timePath_branchC_2_in1 <= 4
  timePath_branchC_2_in1 - timePath_forkC_4_out2 >= -0
  timePath_fork_5_out1 <= 4
  timePath_phi_1_in1 <= 4
  timePath_phi_1_in1 - timePath_fork_5_out1 >= -0
  timePath_fork_5_out2 <= 4
  timePath_phiC_0_in1 <= 4
  timePath_phiC_0_in1 - timePath_fork_5_out2 >= -0
  timePath_fork_6_out1 <= 4
  timePath_add_5_in1 <= 4
  timePath_add_5_in1 - timePath_fork_6_out1 >= -0
  timePath_fork_6_out2 <= 4
  timePath_mul_6_in2 <= 4
  timePath_mul_6_in2 - timePath_fork_6_out2 >= -0
  timePath_fork_6_out3 <= 4
  timePath_mul_8_in2 <= 4
  timePath_mul_8_in2 - timePath_fork_6_out3 >= -0
  timePath_fork_6_out4 <= 4
  timePath_mul_10_in2 <= 4
  timePath_mul_10_in2 - timePath_fork_6_out4 >= -0
  timePath_fork_6_out5 <= 4
  timePath_mul_12_in2 <= 4
  timePath_mul_12_in2 - timePath_fork_6_out5 >= -0
  timePath_fork_6_out6 <= 4
  timePath_mul_14_in2 <= 4
  timePath_mul_14_in2 - timePath_fork_6_out6 >= -0
  timePath_fork_6_out7 <= 4
  timePath_mul_16_in2 <= 4
  timePath_mul_16_in2 - timePath_fork_6_out7 >= -0
  timePath_fork_6_out8 <= 4
  timePath_mul_18_in2 <= 4
  timePath_mul_18_in2 - timePath_fork_6_out8 >= -0
  timePath_ret_0_out1 <= 4
  timePath_end_0_in3 <= 4
  8 ret_0_end_0164_flop - timePath_ret_0_out1 + timePath_end_0_in3 >= 0
  -timePath_cst_0_in1 + timePath_cst_0_out1 >= 0
  -timePath_cst_11_in1 + timePath_cst_11_out1 >= 0
  -timePath_forkC_3_in1 + timePath_forkC_3_out1 >= 0
  -timePath_forkC_3_in1 + timePath_forkC_3_out2 >= 0
  -timePath_forkC_3_in1 + timePath_forkC_3_out3 >= 0
  -timePath_phi_1_in1 + timePath_phi_1_out1 >= 0.366
  -timePath_phi_1_in2 + timePath_phi_1_out1 >= 0.366
  -timePath_phi_1_in3 + timePath_phi_1_out1 >= 0.366
  timePath_load_4_out1 = 0
  timePath_load_4_out2 = 0
  timePath_load_4_in1 <= 4
  timePath_load_4_in2 <= 4
  -timePath_cst_1_in1 + timePath_cst_1_out1 >= 0
  -timePath_add_5_in1 + timePath_add_5_out1 >= 1.693
  -timePath_add_5_in2 + timePath_add_5_out1 >= 1.693
  timePath_mul_6_out1 = 0
  timePath_mul_6_in1 <= 4
  timePath_mul_6_in2 <= 4
  -timePath_cst_2_in1 + timePath_cst_2_out1 >= 0
  -timePath_add_7_in1 + timePath_add_7_out1 >= 1.693
  -timePath_add_7_in2 + timePath_add_7_out1 >= 1.693
  timePath_mul_8_out1 = 0
  timePath_mul_8_in1 <= 4
  timePath_mul_8_in2 <= 4
  -timePath_cst_3_in1 + timePath_cst_3_out1 >= 0
  -timePath_add_9_in1 + timePath_add_9_out1 >= 1.693
  -timePath_add_9_in2 + timePath_add_9_out1 >= 1.693
  timePath_mul_10_out1 = 0
  timePath_mul_10_in1 <= 4
  timePath_mul_10_in2 <= 4
  -timePath_cst_4_in1 + timePath_cst_4_out1 >= 0
  -timePath_add_11_in1 + timePath_add_11_out1 >= 1.693
  -timePath_add_11_in2 + timePath_add_11_out1 >= 1.693
  timePath_mul_12_out1 = 0
  timePath_mul_12_in1 <= 4
  timePath_mul_12_in2 <= 4
  -timePath_cst_5_in1 + timePath_cst_5_out1 >= 0
  -timePath_add_13_in1 + timePath_add_13_out1 >= 1.693
  -timePath_add_13_in2 + timePath_add_13_out1 >= 1.693
  timePath_mul_14_out1 = 0
  timePath_mul_14_in1 <= 4
  timePath_mul_14_in2 <= 4
  -timePath_cst_6_in1 + timePath_cst_6_out1 >= 0
  -timePath_add_15_in1 + timePath_add_15_out1 >= 1.693
  -timePath_add_15_in2 + timePath_add_15_out1 >= 1.693
  timePath_mul_16_out1 = 0
  timePath_mul_16_in1 <= 4
  timePath_mul_16_in2 <= 4
  -timePath_cst_7_in1 + timePath_cst_7_out1 >= 0
  -timePath_add_17_in1 + timePath_add_17_out1 >= 1.693
  -timePath_add_17_in2 + timePath_add_17_out1 >= 1.693
  timePath_mul_18_out1 = 0
  timePath_mul_18_in1 <= 4
  timePath_mul_18_in2 <= 4
  -timePath_cst_8_in1 + timePath_cst_8_out1 >= 0
  -timePath_add_19_in1 + timePath_add_19_out1 >= 1.693
  -timePath_add_19_in2 + timePath_add_19_out1 >= 1.693
  timePath_load_22_out1 = 0
  timePath_load_22_out2 = 0
  timePath_load_22_in1 <= 4
  timePath_load_22_in2 <= 4
  -timePath_store_0_in1 + timePath_store_0_out1 >= 0
  -timePath_store_0_in2 + timePath_store_0_out1 >= 0
  -timePath_store_0_in1 + timePath_store_0_out2 >= 0
  -timePath_store_0_in2 + timePath_store_0_out2 >= 0
  -timePath_cst_9_in1 + timePath_cst_9_out1 >= 0
  -timePath_add_25_in1 + timePath_add_25_out1 >= 1.693
  -timePath_add_25_in2 + timePath_add_25_out1 >= 1.693
  -timePath_cst_10_in1 + timePath_cst_10_out1 >= 0
  -timePath_icmp_26_in1 + timePath_icmp_26_out1 >= 1.53
  -timePath_icmp_26_in2 + timePath_icmp_26_out1 >= 1.53
  -timePath_forkC_0_in1 + timePath_forkC_0_out1 >= 0
  -timePath_phiC_0_in1 + timePath_phiC_0_out1 >= 0.166
  -timePath_phiC_0_in2 + timePath_phiC_0_out1 >= 0.166
  -timePath_phiC_0_in3 + timePath_phiC_0_out1 >= 0.166
  -timePath_branch_0_in1 + timePath_branch_0_out1 >= 0
  -timePath_branch_0_in2 + timePath_branch_0_out1 >= 0
  -timePath_branch_0_in1 + timePath_branch_0_out2 >= 0
  -timePath_branch_0_in2 + timePath_branch_0_out2 >= 0
  -timePath_phi_n11_in1 + timePath_phi_n11_out1 >= 0.366
  -timePath_phi_n11_in2 + timePath_phi_n11_out1 >= 0.366
  -timePath_branchC_2_in1 + timePath_branchC_2_out1 >= 0
  -timePath_branchC_2_in2 + timePath_branchC_2_out1 >= 0
  -timePath_branchC_2_in1 + timePath_branchC_2_out2 >= 0
  -timePath_branchC_2_in2 + timePath_branchC_2_out2 >= 0
  -timePath_fork_0_in1 + timePath_fork_0_out1 >= 0
  -timePath_fork_0_in1 + timePath_fork_0_out2 >= 0
  -timePath_fork_0_in1 + timePath_fork_0_out3 >= 0
  -timePath_fork_1_in1 + timePath_fork_1_out1 >= 0
  -timePath_fork_1_in1 + timePath_fork_1_out2 >= 0
  -timePath_fork_2_in1 + timePath_fork_2_out1 >= 0
  -timePath_fork_2_in1 + timePath_fork_2_out2 >= 0
  -timePath_fork_2_in1 + timePath_fork_2_out3 >= 0
  -timePath_forkC_4_in1 + timePath_forkC_4_out1 >= 0
  -timePath_forkC_4_in1 + timePath_forkC_4_out2 >= 0
  -timePath_forkC_4_in1 + timePath_forkC_4_out3 >= 0
  -timePath_forkC_4_in1 + timePath_forkC_4_out4 >= 0
  -timePath_forkC_4_in1 + timePath_forkC_4_out5 >= 0
  -timePath_forkC_4_in1 + timePath_forkC_4_out6 >= 0
  -timePath_forkC_4_in1 + timePath_forkC_4_out7 >= 0
  -timePath_forkC_4_in1 + timePath_forkC_4_out8 >= 0
  -timePath_forkC_4_in1 + timePath_forkC_4_out9 >= 0
  -timePath_forkC_4_in1 + timePath_forkC_4_out10 >= 0
  -timePath_forkC_4_in1 + timePath_forkC_4_out11 >= 0
  -timePath_forkC_4_in1 + timePath_forkC_4_out12 >= 0
  -timePath_fork_5_in1 + timePath_fork_5_out1 >= 0
  -timePath_fork_5_in1 + timePath_fork_5_out2 >= 0
  -timePath_fork_6_in1 + timePath_fork_6_out1 >= 0
  -timePath_fork_6_in1 + timePath_fork_6_out2 >= 0
  -timePath_fork_6_in1 + timePath_fork_6_out3 >= 0
  -timePath_fork_6_in1 + timePath_fork_6_out4 >= 0
  -timePath_fork_6_in1 + timePath_fork_6_out5 >= 0
  -timePath_fork_6_in1 + timePath_fork_6_out6 >= 0
  -timePath_fork_6_in1 + timePath_fork_6_out7 >= 0
  -timePath_fork_6_in1 + timePath_fork_6_out8 >= 0
  -timePath_ret_0_in1 + timePath_ret_0_out1 >= 0
  -timePath_LSQ_A_in1 + timePath_LSQ_A_out1 >= 0
  -timePath_LSQ_A_in2 + timePath_LSQ_A_out1 >= 0
  -timePath_LSQ_A_in3 + timePath_LSQ_A_out1 >= 0
  -timePath_LSQ_A_in4 + timePath_LSQ_A_out1 >= 0
  -timePath_LSQ_A_in1 + timePath_LSQ_A_out2 >= 0
  -timePath_LSQ_A_in2 + timePath_LSQ_A_out2 >= 0
  -timePath_LSQ_A_in3 + timePath_LSQ_A_out2 >= 0
  -timePath_LSQ_A_in4 + timePath_LSQ_A_out2 >= 0
  -timePath_MC_b_in1 + timePath_MC_b_out1 >= 0
  -timePath_MC_b_in1 + timePath_MC_b_out2 >= 0
  52 cst_0_phi_112_flop - timeElastic_cst_0_out1 + timeElastic_phi_1_in3 >= 0
  52 start_0_forkC_36_flop - timeElastic_start_0_out1 + timeElastic_forkC_3_in1 >= 0
  52 cst_11_phi_n11107_flop - timeElastic_cst_11_out1 + timeElastic_phi_n11_in1 >= 0
  52 forkC_3_cst_00_flop + timeElastic_cst_0_in1 - timeElastic_forkC_3_out1 >= 0
  52 forkC_3_cst_114_flop + timeElastic_cst_11_in1 - timeElastic_forkC_3_out3 >= 0
  52 forkC_3_phiC_0101_flop - timeElastic_forkC_3_out2 + timeElastic_phiC_0_in3 >= 0
  -timeElastic_phi_1_out1 + timeElastic_fork_0_in1 >= -52
  -timeElastic_load_4_out1 + timeElastic_fork_6_in1 >= -0
  -timeElastic_cst_1_out1 + timeElastic_add_5_in2 >= -0
  -timeElastic_add_5_out1 + timeElastic_mul_6_in1 >= -0
  -timeElastic_mul_6_out1 + timeElastic_add_7_in1 >= -0
  -timeElastic_cst_2_out1 + timeElastic_add_7_in2 >= -0
  -timeElastic_add_7_out1 + timeElastic_mul_8_in1 >= -0
  -timeElastic_mul_8_out1 + timeElastic_add_9_in1 >= -0
  -timeElastic_cst_3_out1 + timeElastic_add_9_in2 >= -0
  -timeElastic_add_9_out1 + timeElastic_mul_10_in1 >= -0
  -timeElastic_mul_10_out1 + timeElastic_add_11_in1 >= -0
  -timeElastic_cst_4_out1 + timeElastic_add_11_in2 >= -0
  -timeElastic_add_11_out1 + timeElastic_mul_12_in1 >= -0
  -timeElastic_mul_12_out1 + timeElastic_add_13_in1 >= -0
  -timeElastic_cst_5_out1 + timeElastic_add_13_in2 >= -0
  -timeElastic_add_13_out1 + timeElastic_mul_14_in1 >= -0
  -timeElastic_mul_14_out1 + timeElastic_add_15_in1 >= -0
  -timeElastic_cst_6_out1 + timeElastic_add_15_in2 >= -0
  -timeElastic_add_15_out1 + timeElastic_mul_16_in1 >= -0
  -timeElastic_mul_16_out1 + timeElastic_add_17_in1 >= -0
  -timeElastic_cst_7_out1 + timeElastic_add_17_in2 >= -0
  -timeElastic_add_17_out1 + timeElastic_mul_18_in1 >= -0
  -timeElastic_mul_18_out1 + timeElastic_add_19_in1 >= -0
  -timeElastic_cst_8_out1 + timeElastic_add_19_in2 >= -0
  -timeElastic_add_19_out1 + timeElastic_store_0_in1 >= -0
  -timeElastic_load_22_out1 + timeElastic_store_0_in2 >= -0
  -timeElastic_cst_9_out1 + timeElastic_add_25_in2 >= -0
  -timeElastic_add_25_out1 + timeElastic_fork_1_in1 >= -0
  -timeElastic_cst_10_out1 + timeElastic_icmp_26_in2 >= -0
  -timeElastic_icmp_26_out1 + timeElastic_fork_2_in1 >= -0
  -timeElastic_phiC_0_out1 + timeElastic_forkC_4_in1 >= -52
  timeElastic_phi_1_in2 - timeElastic_branch_0_out2 >= -0
  52 branch_0_ret_0150_flop - timeElastic_branch_0_out1 + timeElastic_ret_0_in1 >= 0
  -timeElastic_phi_n11_out1 + timeElastic_fork_5_in1 >= -0
  timeElastic_phiC_0_in2 - timeElastic_branchC_2_out2 >= -0
  52 branchC_2_sink_1161_flop - timeElastic_branchC_2_out1 + timeElastic_sink_1_in1 >= 0
  timeElastic_load_4_in2 - timeElastic_fork_0_out2 >= -0
  timeElastic_load_22_in2 - timeElastic_fork_0_out3 >= -0
  timeElastic_add_25_in1 - timeElastic_fork_0_out1 >= -0
  timeElastic_icmp_26_in1 - timeElastic_fork_1_out1 >= -0
  timeElastic_branch_0_in1 - timeElastic_fork_1_out2 >= -0
  timeElastic_branch_0_in2 - timeElastic_fork_2_out1 >= -0
  timeElastic_phi_n11_in2 - timeElastic_fork_2_out2 >= -0
  timeElastic_branchC_2_in2 - timeElastic_fork_2_out3 >= -0
  timeElastic_cst_1_in1 - timeElastic_forkC_4_out1 >= -0
  timeElastic_cst_2_in1 - timeElastic_forkC_4_out3 >= -0
  timeElastic_cst_3_in1 - timeElastic_forkC_4_out4 >= -0
  timeElastic_cst_4_in1 - timeElastic_forkC_4_out5 >= -0
  timeElastic_cst_5_in1 - timeElastic_forkC_4_out6 >= -0
  timeElastic_cst_6_in1 - timeElastic_forkC_4_out7 >= -0
  timeElastic_cst_7_in1 - timeElastic_forkC_4_out8 >= -0
  timeElastic_cst_8_in1 - timeElastic_forkC_4_out9 >= -0
  timeElastic_cst_9_in1 - timeElastic_forkC_4_out10 >= -0
  timeElastic_cst_10_in1 - timeElastic_forkC_4_out11 >= -0
  timeElastic_forkC_0_in1 - timeElastic_forkC_4_out12 >= -0
  timeElastic_branchC_2_in1 - timeElastic_forkC_4_out2 >= -0
  timeElastic_phi_1_in1 - timeElastic_fork_5_out1 >= -0
  timeElastic_phiC_0_in1 - timeElastic_fork_5_out2 >= -0
  timeElastic_add_5_in1 - timeElastic_fork_6_out1 >= -0
  timeElastic_mul_6_in2 - timeElastic_fork_6_out2 >= -0
  timeElastic_mul_8_in2 - timeElastic_fork_6_out3 >= -0
  timeElastic_mul_10_in2 - timeElastic_fork_6_out4 >= -0
  timeElastic_mul_12_in2 - timeElastic_fork_6_out5 >= -0
  timeElastic_mul_14_in2 - timeElastic_fork_6_out6 >= -0
  timeElastic_mul_16_in2 - timeElastic_fork_6_out7 >= -0
  timeElastic_mul_18_in2 - timeElastic_fork_6_out8 >= -0
  52 ret_0_end_0164_flop - timeElastic_ret_0_out1 + timeElastic_end_0_in3 >= 0
  -timeElastic_cst_0_in1 + timeElastic_cst_0_out1 >= 1
  -timeElastic_cst_11_in1 + timeElastic_cst_11_out1 >= 1
  -timeElastic_forkC_3_in1 + timeElastic_forkC_3_out1 >= 1
  -timeElastic_forkC_3_in1 + timeElastic_forkC_3_out2 >= 1
  -timeElastic_forkC_3_in1 + timeElastic_forkC_3_out3 >= 1
  -timeElastic_phi_1_in1 + timeElastic_phi_1_out1 >= 1
  -timeElastic_phi_1_in2 + timeElastic_phi_1_out1 >= 1
  -timeElastic_phi_1_in3 + timeElastic_phi_1_out1 >= 1
  -timeElastic_load_4_in1 + timeElastic_load_4_out1 >= 1
  -timeElastic_load_4_in2 + timeElastic_load_4_out1 >= 1
  -timeElastic_load_4_in1 + timeElastic_load_4_out2 >= 1
  -timeElastic_load_4_in2 + timeElastic_load_4_out2 >= 1
  -timeElastic_cst_1_in1 + timeElastic_cst_1_out1 >= 1
  -timeElastic_add_5_in1 + timeElastic_add_5_out1 >= 1
  -timeElastic_add_5_in2 + timeElastic_add_5_out1 >= 1
  -timeElastic_mul_6_in1 + timeElastic_mul_6_out1 >= 1
  -timeElastic_mul_6_in2 + timeElastic_mul_6_out1 >= 1
  -timeElastic_cst_2_in1 + timeElastic_cst_2_out1 >= 1
  -timeElastic_add_7_in1 + timeElastic_add_7_out1 >= 1
  -timeElastic_add_7_in2 + timeElastic_add_7_out1 >= 1
  -timeElastic_mul_8_in1 + timeElastic_mul_8_out1 >= 1
  -timeElastic_mul_8_in2 + timeElastic_mul_8_out1 >= 1
  -timeElastic_cst_3_in1 + timeElastic_cst_3_out1 >= 1
  -timeElastic_add_9_in1 + timeElastic_add_9_out1 >= 1
  -timeElastic_add_9_in2 + timeElastic_add_9_out1 >= 1
  -timeElastic_mul_10_in1 + timeElastic_mul_10_out1 >= 1
  -timeElastic_mul_10_in2 + timeElastic_mul_10_out1 >= 1
  -timeElastic_cst_4_in1 + timeElastic_cst_4_out1 >= 1
  -timeElastic_add_11_in1 + timeElastic_add_11_out1 >= 1
  -timeElastic_add_11_in2 + timeElastic_add_11_out1 >= 1
  -timeElastic_mul_12_in1 + timeElastic_mul_12_out1 >= 1
  -timeElastic_mul_12_in2 + timeElastic_mul_12_out1 >= 1
  -timeElastic_cst_5_in1 + timeElastic_cst_5_out1 >= 1
  -timeElastic_add_13_in1 + timeElastic_add_13_out1 >= 1
  -timeElastic_add_13_in2 + timeElastic_add_13_out1 >= 1
  -timeElastic_mul_14_in1 + timeElastic_mul_14_out1 >= 1
  -timeElastic_mul_14_in2 + timeElastic_mul_14_out1 >= 1
  -timeElastic_cst_6_in1 + timeElastic_cst_6_out1 >= 1
  -timeElastic_add_15_in1 + timeElastic_add_15_out1 >= 1
  -timeElastic_add_15_in2 + timeElastic_add_15_out1 >= 1
  -timeElastic_mul_16_in1 + timeElastic_mul_16_out1 >= 1
  -timeElastic_mul_16_in2 + timeElastic_mul_16_out1 >= 1
  -timeElastic_cst_7_in1 + timeElastic_cst_7_out1 >= 1
  -timeElastic_add_17_in1 + timeElastic_add_17_out1 >= 1
  -timeElastic_add_17_in2 + timeElastic_add_17_out1 >= 1
  -timeElastic_mul_18_in1 + timeElastic_mul_18_out1 >= 1
  -timeElastic_mul_18_in2 + timeElastic_mul_18_out1 >= 1
  -timeElastic_cst_8_in1 + timeElastic_cst_8_out1 >= 1
  -timeElastic_add_19_in1 + timeElastic_add_19_out1 >= 1
  -timeElastic_add_19_in2 + timeElastic_add_19_out1 >= 1
  -timeElastic_load_22_in1 + timeElastic_load_22_out1 >= 1
  -timeElastic_load_22_in2 + timeElastic_load_22_out1 >= 1
  -timeElastic_load_22_in1 + timeElastic_load_22_out2 >= 1
  -timeElastic_load_22_in2 + timeElastic_load_22_out2 >= 1
  -timeElastic_store_0_in1 + timeElastic_store_0_out1 >= 1
  -timeElastic_store_0_in2 + timeElastic_store_0_out1 >= 1
  -timeElastic_store_0_in1 + timeElastic_store_0_out2 >= 1
  -timeElastic_store_0_in2 + timeElastic_store_0_out2 >= 1
  -timeElastic_cst_9_in1 + timeElastic_cst_9_out1 >= 1
  -timeElastic_add_25_in1 + timeElastic_add_25_out1 >= 1
  -timeElastic_add_25_in2 + timeElastic_add_25_out1 >= 1
  -timeElastic_cst_10_in1 + timeElastic_cst_10_out1 >= 1
  -timeElastic_icmp_26_in1 + timeElastic_icmp_26_out1 >= 1
  -timeElastic_icmp_26_in2 + timeElastic_icmp_26_out1 >= 1
  -timeElastic_forkC_0_in1 + timeElastic_forkC_0_out1 >= 1
  -timeElastic_phiC_0_in1 + timeElastic_phiC_0_out1 >= 1
  -timeElastic_phiC_0_in2 + timeElastic_phiC_0_out1 >= 1
  -timeElastic_phiC_0_in3 + timeElastic_phiC_0_out1 >= 1
  -timeElastic_branch_0_in1 + timeElastic_branch_0_out1 >= 1
  -timeElastic_branch_0_in2 + timeElastic_branch_0_out1 >= 1
  -timeElastic_branch_0_in1 + timeElastic_branch_0_out2 >= 1
  -timeElastic_branch_0_in2 + timeElastic_branch_0_out2 >= 1
  -timeElastic_phi_n11_in1 + timeElastic_phi_n11_out1 >= 1
  -timeElastic_phi_n11_in2 + timeElastic_phi_n11_out1 >= 1
  -timeElastic_branchC_2_in1 + timeElastic_branchC_2_out1 >= 1
  -timeElastic_branchC_2_in2 + timeElastic_branchC_2_out1 >= 1
  -timeElastic_branchC_2_in1 + timeElastic_branchC_2_out2 >= 1
  -timeElastic_branchC_2_in2 + timeElastic_branchC_2_out2 >= 1
  -timeElastic_fork_0_in1 + timeElastic_fork_0_out1 >= 1
  -timeElastic_fork_0_in1 + timeElastic_fork_0_out2 >= 1
  -timeElastic_fork_0_in1 + timeElastic_fork_0_out3 >= 1
  -timeElastic_fork_1_in1 + timeElastic_fork_1_out1 >= 1
  -timeElastic_fork_1_in1 + timeElastic_fork_1_out2 >= 1
  -timeElastic_fork_2_in1 + timeElastic_fork_2_out1 >= 1
  -timeElastic_fork_2_in1 + timeElastic_fork_2_out2 >= 1
  -timeElastic_fork_2_in1 + timeElastic_fork_2_out3 >= 1
  -timeElastic_forkC_4_in1 + timeElastic_forkC_4_out1 >= 1
  -timeElastic_forkC_4_in1 + timeElastic_forkC_4_out2 >= 1
  -timeElastic_forkC_4_in1 + timeElastic_forkC_4_out3 >= 1
  -timeElastic_forkC_4_in1 + timeElastic_forkC_4_out4 >= 1
  -timeElastic_forkC_4_in1 + timeElastic_forkC_4_out5 >= 1
  -timeElastic_forkC_4_in1 + timeElastic_forkC_4_out6 >= 1
  -timeElastic_forkC_4_in1 + timeElastic_forkC_4_out7 >= 1
  -timeElastic_forkC_4_in1 + timeElastic_forkC_4_out8 >= 1
  -timeElastic_forkC_4_in1 + timeElastic_forkC_4_out9 >= 1
  -timeElastic_forkC_4_in1 + timeElastic_forkC_4_out10 >= 1
  -timeElastic_forkC_4_in1 + timeElastic_forkC_4_out11 >= 1
  -timeElastic_forkC_4_in1 + timeElastic_forkC_4_out12 >= 1
  -timeElastic_fork_5_in1 + timeElastic_fork_5_out1 >= 1
  -timeElastic_fork_5_in1 + timeElastic_fork_5_out2 >= 1
  -timeElastic_fork_6_in1 + timeElastic_fork_6_out1 >= 1
  -timeElastic_fork_6_in1 + timeElastic_fork_6_out2 >= 1
  -timeElastic_fork_6_in1 + timeElastic_fork_6_out3 >= 1
  -timeElastic_fork_6_in1 + timeElastic_fork_6_out4 >= 1
  -timeElastic_fork_6_in1 + timeElastic_fork_6_out5 >= 1
  -timeElastic_fork_6_in1 + timeElastic_fork_6_out6 >= 1
  -timeElastic_fork_6_in1 + timeElastic_fork_6_out7 >= 1
  -timeElastic_fork_6_in1 + timeElastic_fork_6_out8 >= 1
  -timeElastic_ret_0_in1 + timeElastic_ret_0_out1 >= 1
  -timeElastic_LSQ_A_in1 + timeElastic_LSQ_A_out1 >= 1
  -timeElastic_LSQ_A_in2 + timeElastic_LSQ_A_out1 >= 1
  -timeElastic_LSQ_A_in3 + timeElastic_LSQ_A_out1 >= 1
  -timeElastic_LSQ_A_in4 + timeElastic_LSQ_A_out1 >= 1
  -timeElastic_LSQ_A_in1 + timeElastic_LSQ_A_out2 >= 1
  -timeElastic_LSQ_A_in2 + timeElastic_LSQ_A_out2 >= 1
  -timeElastic_LSQ_A_in3 + timeElastic_LSQ_A_out2 >= 1
  -timeElastic_LSQ_A_in4 + timeElastic_LSQ_A_out2 >= 1
  -timeElastic_MC_b_in1 + timeElastic_MC_b_out1 >= 1
  -timeElastic_MC_b_in1 + timeElastic_MC_b_out2 >= 1
Binary
  cst_0_phi_112_flop start_0_forkC_36_flop cst_11_phi_n11107_flop forkC_3_cst_00_flop forkC_3_cst_114_flop forkC_3_phiC_0101_flop load_4_LSQ_A153_flop load_22_MC_b158_flop store_0_LSQ_A154_flop store_0_LSQ_A155_flop forkC_0_LSQ_A152_flop branch_0_ret_0150_flop branchC_2_sink_1161_flop ret_0_end_0164_flop LSQ_A_load_414_flop LSQ_A_end_0162_flop MC_b_load_2279_flop MC_b_end_0163_flop
End
